\ENCODING=ISO-8859-1
\Problem name: IloCplex

Minimize
 obj1: X(12)
Subject To
 c1:  - X(0) - X(1) - X(2) - X(12)  = -20
 c2:  X(0) - X(3) - X(4)  = 0
 c3:  X(1) + X(3) - X(5) - X(6) + X(7)  = 0
 c4:  X(2) - X(7) - X(8) - X(9)  = 0
 c5:  X(4) + X(5) + X(8) - X(10)  = 0
 c6:  X(6) + X(9) - X(11)  = 0
 c7:  X(10) + X(11) + X(12)  = 20
 c8:  X(0) <= 10
 c9:  X(1) <= 8
 c10: X(2) <= 3
 c11: X(3) <= 4
 c12: X(4) <= 4
 c13: X(5) <= 8
 c14: X(6) <= 2
 c15: X(7) <= 3
 c16: X(8) <= 7
 c17: X(9) <= 9
 c18: X(10) <= 10
 c19: X(11) <= 10
 c20: X(12) <= 999999999999
End
